This is Ipopt version 3.12.1, running with linear solver pardiso.

Number of nonzeros in equality constraint Jacobian...:     1998
Number of nonzeros in inequality constraint Jacobian.:     1476
Number of nonzeros in Lagrangian Hessian.............:     1110

Total number of variables............................:      343
                     variables with only lower bounds:        0
                variables with lower and upper bounds:      226
                     variables with only upper bounds:        0
Total number of equality constraints.................:      236
Total number of inequality constraints...............:      372
        inequality constraints with only lower bounds:        0
   inequality constraints with lower and upper bounds:        0
        inequality constraints with only upper bounds:      372

iter    objective    inf_pr   inf_du lg(mu)  ||d||  lg(rg) alpha_du alpha_pr  ls
   0  1.7160931e+05 4.52e+00 2.80e+04  -1.0 0.00e+00    -  0.00e+00 0.00e+00   0
   1  1.4396275e+05 2.18e+00 1.35e+04  -1.0 4.28e+00    -  5.30e-01 5.17e-01f  1
   2  1.4312094e+05 2.08e+00 1.29e+04  -1.0 1.55e+01    -  2.22e-03 4.34e-02f  1
   3  1.4304546e+05 2.08e+00 1.29e+04  -1.0 1.49e+01    -  5.83e-02 4.17e-03f  1
   4  1.4241070e+05 2.00e+00 1.24e+04  -1.0 1.47e+01    -  2.38e-01 3.58e-02f  1
   5  1.4043237e+05 2.43e+00 1.09e+04  -1.0 1.38e+01    -  2.60e-01 1.21e-01f  1
   6  1.3890971e+05 3.16e+00 9.67e+03  -1.0 1.18e+01    -  4.26e-01 1.14e-01f  1
   7  1.3744287e+05 3.70e+00 8.38e+03  -1.0 8.58e+00    -  8.09e-01 1.33e-01f  1
   8  1.3559956e+05 3.09e+00 6.58e+03  -1.0 2.77e+00    -  1.64e-01 2.14e-01f  1
   9  1.3468471e+05 2.65e+00 5.60e+03  -1.0 2.11e+00    -  1.08e-01 1.49e-01f  1
iter    objective    inf_pr   inf_du lg(mu)  ||d||  lg(rg) alpha_du alpha_pr  ls
  10  1.3309738e+05 1.82e+00 3.76e+03  -1.0 1.87e+00    -  2.55e-01 3.29e-01f  1
  11  1.3144161e+05 8.18e-01 1.56e+03  -1.0 1.38e+00    -  9.55e-01 5.86e-01f  1
  12  1.3068668e+05 2.22e-01 3.76e+02  -1.0 7.50e-01    -  1.00e+00 7.58e-01f  1
  13  1.3047188e+05 2.69e-03 2.74e+01  -1.0 2.61e-01    -  1.00e+00 1.00e+00f  1
  14  1.3047282e+05 5.40e-07 1.55e-02  -1.0 1.12e-02    -  1.00e+00 1.00e+00h  1
  15  1.3046993e+05 5.15e-05 8.68e+00  -2.5 9.16e-02    -  9.19e-01 8.19e-01f  1
  16  1.3046941e+05 1.71e-05 7.28e-02  -2.5 3.92e-02    -  1.00e+00 1.00e+00f  1
  17  1.3046936e+05 2.71e-06 6.89e-03  -3.8 1.16e-02    -  1.00e+00 1.00e+00h  1
  18  1.3046936e+05 2.43e-07 7.84e-04  -3.8 5.00e-03    -  1.00e+00 1.00e+00h  1
  19  1.3046935e+05 3.50e-08 1.11e-04  -5.7 1.65e-03    -  1.00e+00 1.00e+00h  1
iter    objective    inf_pr   inf_du lg(mu)  ||d||  lg(rg) alpha_du alpha_pr  ls
  20  1.3046935e+05 4.49e-10 1.66e-06  -5.7 1.51e-04    -  1.00e+00 1.00e+00h  1
  21  1.3046935e+05 1.81e-12 5.44e-09  -7.0 8.39e-06    -  1.00e+00 1.00e+00h  1

Number of Iterations....: 21

                                   (scaled)                 (unscaled)
Objective...............:   1.3046935236088547e+05    1.3046935236088547e+05
Dual infeasibility......:   5.4390809557566924e-09    5.4390809557566924e-09
Constraint violation....:   1.8148677005669356e-12    1.8148677005669356e-12
Complementarity.........:   9.3285607171884726e-08    9.3285607171884726e-08
Overall NLP error.......:   9.3285607171884726e-08    9.3285607171884726e-08


Number of objective function evaluations             = 22
Number of objective gradient evaluations             = 22
Number of equality constraint evaluations            = 22
Number of inequality constraint evaluations          = 22
Number of equality constraint Jacobian evaluations   = 22
Number of inequality constraint Jacobian evaluations = 22
Number of Lagrangian Hessian evaluations             = 21
Total CPU secs in IPOPT (w/o function evaluations)   =      0.050
Total CPU secs in NLP function evaluations           =      0.250

EXIT: Optimal Solution Found.
